qbf_easy_train/easy_376_SAT.qdimacs
p cnf 25 62
a 16 2 10 0
e 1 3 4 5 6 7 8 9 11 12 13 14 15 17 18 19 20 21 22 23 24 25 0
5 3 0
5 4 0
-3 -4 -5 0
-6 -2 0
-6 -5 0
2 5 6 0
1 -6 -7 0
-1 6 -7 0
1 6 7 0
-1 -6 7 0
-2 8 -9 0
2 -8 -9 0
-2 -8 9 0
2 8 9 0
11 9 0
11 10 0
-9 -10 -11 0
-12 7 0
-12 11 0
-7 -11 12 0
-14 -13 0
-14 -8 0
13 8 14 0
1 14 -15 0
-1 -14 -15 0
1 -14 15 0
-1 14 15 0
16 15 0
16 15 0
-15 -16 0
17 10 0
17 -6 0
-10 6 -17 0
18 8 0
18 -9 0
-8 9 -18 0
-20 18 0
-20 -19 0
-18 19 20 0
21 -17 0
21 20 0
17 -20 -21 0
-22 16 0
-22 -21 0
-16 21 22 0
-13 6 -23 0
13 -6 -23 0
-13 -6 23 0
13 6 23 0
-24 22 0
-24 23 0
-22 -23 24 0
25 -12 0
25 24 0
12 -24 -25 0
20 23 21 0
24 -6 16 5 21 0
-4 15 -3 2 -13 0
-20 19 -8 0
-9 14 -25 13 20 0
-8 17 12 -14 -23 0
25 0
