sat_easy_train/easy_376_SAT.dimacs
p cnf 140 471
-3 4 -5 0
3 -4 -5 0
-3 -4 5 0
3 4 5 0
-6 5 0
-6 -5 0
-7 -2 0
-7 6 0
2 -6 7 0
8 -1 0
8 -7 0
1 7 -8 0
-9 8 0
-9 -4 0
-8 4 9 0
11 9 0
11 -10 0
-9 10 -11 0
13 8 0
13 -4 0
-8 4 -13 0
14 -1 -15 0
-14 1 -15 0
14 1 15 0
-14 -1 15 0
-17 -15 0
-17 -16 0
15 16 17 0
-18 17 0
-18 -4 0
-17 4 18 0
-19 -13 0
-19 -18 0
13 18 19 0
22 -16 0
22 21 0
16 -21 -22 0
-23 -20 0
-23 22 0
20 -22 23 0
19 23 -24 0
-19 -23 -24 0
19 -23 24 0
-19 23 24 0
25 -21 0
25 -14 0
21 14 -25 0
25 15 -26 0
-25 -15 -26 0
25 -15 26 0
-25 15 26 0
-27 -24 0
-27 -26 0
24 26 27 0
12 -27 -28 0
-12 27 -28 0
12 27 28 0
-12 -27 28 0
-30 -16 -31 0
30 16 -31 0
-30 16 31 0
30 -16 31 0
29 31 -32 0
-29 -31 -32 0
29 -31 32 0
-29 31 32 0
-33 -15 -34 0
33 15 -34 0
-33 15 34 0
33 -15 34 0
35 -34 0
35 21 0
34 -21 -35 0
37 36 0
37 -21 0
-36 21 -37 0
-38 -37 0
-38 9 0
37 -9 38 0
39 -35 0
39 -38 0
35 38 -39 0
-40 32 0
-40 -39 0
-32 39 40 0
41 28 0
41 40 0
-28 -40 -41 0
42 -11 0
42 -41 0
11 41 -42 0
-43 -37 0
-43 -37 0
37 43 0
-44 43 0
-44 35 0
-43 -35 44 0
-45 -1 0
-45 -2 0
1 2 45 0
-46 6 0
-46 45 0
-6 -45 46 0
-47 46 0
-47 -20 0
-46 20 47 0
-48 -44 0
-48 -47 0
44 47 48 0
-43 -21 -49 0
43 21 -49 0
-43 21 49 0
43 -21 49 0
49 8 -50 0
-49 -8 -50 0
49 -8 50 0
-49 8 50 0
-51 48 0
-51 50 0
-48 -50 51 0
-52 -42 0
-52 51 0
42 -51 52 0
-53 25 0
-53 10 0
-25 -10 53 0
-53 -38 -54 0
53 38 -54 0
-53 38 54 0
53 -38 54 0
-1 43 -55 0
1 -43 -55 0
-1 -43 55 0
1 43 55 0
-56 17 0
-56 -15 0
-17 15 56 0
-57 -55 0
-57 56 0
55 -56 57 0
-54 -57 -58 0
54 57 -58 0
-54 57 58 0
54 -57 58 0
59 -7 0
59 -4 0
7 4 -59 0
60 -59 0
60 53 0
59 -53 -60 0
-61 -2 0
-61 6 0
2 -6 61 0
60 61 -62 0
-60 -61 -62 0
60 -61 62 0
-60 61 62 0
63 -62 0
63 -6 0
62 6 -63 0
64 63 0
64 -27 0
-63 27 -64 0
65 58 0
65 -64 0
-58 64 -65 0
66 1 0
66 -34 0
-1 34 -66 0
29 66 -67 0
-29 -66 -67 0
29 -66 67 0
-29 66 67 0
10 -18 -68 0
-10 18 -68 0
10 18 68 0
-10 -18 68 0
-69 17 0
-69 -34 0
-17 34 69 0
-70 -53 0
-70 -20 0
53 20 70 0
-71 69 0
-71 -70 0
-69 70 71 0
-72 68 0
-72 -71 0
-68 71 72 0
-14 -29 -73 0
14 29 -73 0
-14 29 73 0
14 -29 73 0
-72 -73 -74 0
72 73 -74 0
-72 73 74 0
72 -73 74 0
-75 67 0
-75 -74 0
-67 74 75 0
76 7 -77 0
-76 -7 -77 0
76 -7 77 0
-76 7 77 0
-78 75 0
-78 77 0
-75 -77 78 0
79 -1 0
79 -4 0
1 4 -79 0
-80 78 0
-80 -79 0
-78 79 80 0
65 -80 -81 0
-65 80 -81 0
65 80 81 0
-65 -80 81 0
82 -52 0
82 81 0
52 -81 -82 0
83 -29 0
83 -7 0
29 7 -83 0
-83 33 -84 0
83 -33 -84 0
-83 -33 84 0
83 33 84 0
-85 24 0
-85 -84 0
-24 84 85 0
86 56 0
86 33 0
-56 -33 -86 0
5 30 -87 0
-5 -30 -87 0
5 -30 87 0
-5 30 87 0
-88 4 0
-88 -87 0
-4 87 88 0
-89 -37 0
-89 -88 0
37 88 89 0
-90 -2 0
-90 89 0
2 -89 90 0
-4 2 -91 0
4 -2 -91 0
-4 -2 91 0
4 2 91 0
-92 59 0
-92 -91 0
-59 91 92 0
93 -37 0
93 92 0
37 -92 -93 0
-90 93 -94 0
90 -93 -94 0
-90 -93 94 0
90 93 94 0
86 -94 -95 0
-86 94 -95 0
86 94 95 0
-86 -94 95 0
-85 95 -96 0
85 -95 -96 0
-85 -95 96 0
85 95 96 0
-97 -38 0
-97 87 0
38 -87 97 0
-97 -37 -98 0
97 37 -98 0
-97 37 98 0
97 -37 98 0
99 -37 0
99 87 0
37 -87 -99 0
100 66 0
100 -7 0
-66 7 -100 0
99 100 -101 0
-99 -100 -101 0
99 -100 101 0
-99 100 101 0
-91 101 -102 0
91 -101 -102 0
-91 -101 102 0
91 101 102 0
-102 14 -103 0
102 -14 -103 0
-102 -14 103 0
102 14 103 0
-104 98 0
-104 103 0
-98 -103 104 0
-105 -46 0
-105 -36 0
46 36 105 0
106 -45 0
106 -56 0
45 56 -106 0
-20 106 -107 0
20 -106 -107 0
-20 -106 107 0
20 106 107 0
108 24 0
108 -17 0
-24 17 -108 0
-109 -107 0
-109 -108 0
107 108 109 0
-105 109 -110 0
105 -109 -110 0
-105 -109 110 0
105 109 110 0
111 36 0
111 -20 0
-36 20 -111 0
-92 -29 -112 0
92 29 -112 0
-92 29 112 0
92 -29 112 0
113 100 0
113 -37 0
-100 37 -113 0
-114 112 0
-114 -113 0
-112 113 114 0
-115 -111 0
-115 -114 0
111 114 115 0
-116 110 0
-116 115 0
-110 -115 116 0
117 104 0
117 116 0
-104 -116 -117 0
-118 96 0
-118 -117 0
-96 117 118 0
-45 -17 -119 0
45 17 -119 0
-45 17 119 0
45 -17 119 0
-120 -17 0
-120 106 0
17 -106 120 0
-119 120 -121 0
119 -120 -121 0
-119 -120 121 0
119 120 121 0
29 122 0
-29 122 0
49 -92 -123 0
-49 92 -123 0
49 92 123 0
-49 -92 123 0
-124 -122 0
-124 123 0
122 -123 124 0
-125 121 0
-125 124 0
-121 -124 125 0
-126 76 0
-126 -83 0
-76 83 126 0
-127 101 0
-127 126 0
-101 -126 127 0
-128 13 0
-128 -18 0
-13 18 128 0
-129 127 0
-129 -128 0
-127 128 129 0
130 10 0
130 -69 0
-10 69 -130 0
-132 -56 0
-132 -131 0
56 131 132 0
133 -130 0
133 132 0
130 -132 -133 0
-134 -129 0
-134 133 0
129 -133 134 0
125 -134 -135 0
-125 134 -135 0
125 134 135 0
-125 -134 135 0
-136 17 0
-136 29 0
-17 -29 136 0
-4 -136 -137 0
4 136 -137 0
-4 136 137 0
4 -136 137 0
138 -135 0
138 -137 0
135 137 -138 0
-118 -138 -139 0
118 138 -139 0
-118 138 139 0
118 -138 139 0
140 82 0
140 -139 0
-82 139 -140 0
72 51 -115 0
102 28 -29 0
135 127 -55 112 0
104 20 54 0
95 83 -109 0
127 -14 70 71 39 -126 0
-35 -119 28 -73 0
123 62 36 -128 0
-32 -37 42 -93 -135 -24 0
-11 5 -124 -137 -27 0
-107 8 0
-102 -42 -120 -138 0
12 123 103 21 0
100 -119 0
-17 -103 123 99 0
-51 29 -107 -63 52 0
-94 -135 -8 -6 20 -67 0
98 31 27 0
-91 -94 -21 0
-32 105 -93 9 87 0
-130 28 81 0
-5 -98 0
-18 -105 -80 0
-23 18 129 56 0
-4 -70 110 0
-50 -57 77 -106 52 -121 0
73 -90 -37 33 -87 0
55 -22 99 -80 0
78 -81 20 60 0
23 -131 0
123 -59 62 -95 -115 0
44 0
56 -111 -127 110 0
-62 72 28 0
-136 6 67 132 0
-126 97 -111 132 -58 -14 0
40 46 43 139 0
-111 46 -52 122 0
-65 -104 136 93 -22 0
28 -16 -42 47 -114 0
31 18 -117 0
121 48 4 -56 0
-103 -136 -53 0
-95 19 78 0
-88 50 98 138 0
126 71 0
-139 48 -23 122 43 33 0
-37 -132 -101 -6 33 -1 0
46 -88 129 0
-130 -113 -22 0
-132 118 140 -103 0
29 -114 -53 -34 55 -116 0
19 -132 -96 109 0
53 63 17 11 -57 -16 0
111 130 -121 0
-63 -68 135 62 0
58 -120 -46 -119 57 -70 0
80 81 0
34 133 65 8 0
-53 139 -74 10 0
20 119 0
140 0
